(set-logic ALL)
(declare-fun seed0_uri () String)
(assert (and (or (and (and (and (and (and (and (and (and (and (and (and (and (and (and (and (and (and (and (and (not (= (ite (str.contains (str.substr seed0_uri 10 (- (str.len seed0_uri) 10)) "@") 1 0) 0)) (= (ite (str.contains (str.substr seed0_uri 10 (- (str.len seed0_uri) 10)) "?") 1 0) 0)) (= (ite (str.contains (str.substr seed0_uri 10 (- (str.len seed0_uri) 10)) "/") 1 0) 0)) (= (ite (= (str.len (str.substr seed0_uri 10 (- (str.len seed0_uri) 10))) 0) 1 0) 0)) (= (ite (str.contains (str.substr seed0_uri 10 (- (str.len seed0_uri) 10)) ".sock") 1 0) 0)) (not (= (ite (not (= (str.len (str.substr seed0_uri 10 (- (str.len seed0_uri) 10))) 0)) 1 0) 0))) (not (= (ite (str.prefixof "mongodb://" seed0_uri) 1 0) 0))) (not (= (ite (str.prefixof "mongodb://" seed0_uri) 1 0) 0))) (not (= (ite (str.contains seed0_uri "://") 1 0) 0))) (>= 10 0)) (>= (- (str.len seed0_uri) 10) 0)) (>= 10 0)) (>= (- (str.len seed0_uri) 10) 0)) (>= 10 0)) (>= (- (str.len seed0_uri) 10) 0)) (>= 10 0)) (>= (- (str.len seed0_uri) 10) 0)) (>= 10 0)) (>= (- (str.len seed0_uri) 10) 0)) (>= 10 0)) (=> (str.< (str.++ seed0_uri "JNO7PScUb") (str.++ seed0_uri "")) (str.suffixof (str.++ seed0_uri "GwaOR") (str.++ seed0_uri "zwdmnk85gtAEpoqUMRe")))) (or (>= (- (str.len seed0_uri) 10) 0) (str.< (str.++ seed0_uri "t13WCdK") (str.++ seed0_uri "pGbuTo2XP0cjx4")))))
(check-sat)
(exit)